NAME : tsp_297_sol.txt
COMMENT : OR-Tools Guided Local Search
TYPE : TOUR
DIMENSION : 50
COST : 5530
STATUS : ROUTING_SUCCESS
GAP : 0.00% (Reference Solution)
TOUR_SECTION
1
21
4
28
7
11
36
6
30
48
13
46
38
40
9
37
19
2
8
45
23
27
44
31
34
16
50
17
47
43
33
41
35
39
42
3
18
49
32
24
12
10
15
5
26
14
22
25
20
29
-1
